
******************************************************************************
This program contains Ipopt, a library for large-scale nonlinear optimization.
 Ipopt is released as open source code under the Eclipse Public License (EPL).
         For more information visit http://projects.coin-or.org/Ipopt
******************************************************************************

This is Ipopt version 3.13.2, running with linear solver pardiso.

Number of nonzeros in equality constraint Jacobian...:        0
Number of nonzeros in inequality constraint Jacobian.:     3600
Number of nonzeros in Lagrangian Hessian.............:        0

Total number of variables............................:     3600
                     variables with only lower bounds:        0
                variables with lower and upper bounds:     3600
                     variables with only upper bounds:        0
Total number of equality constraints.................:        0
Total number of inequality constraints...............:        1
        inequality constraints with only lower bounds:        0
   inequality constraints with lower and upper bounds:        1
        inequality constraints with only upper bounds:        0

iter    objective    inf_pr   inf_du lg(mu)  ||d||  lg(rg) alpha_du alpha_pr  ls
   0  2.5523988e+08 1.50e-08 1.00e+02   0.0 0.00e+00    -  0.00e+00 0.00e+00   0
   1  2.5040268e+08 3.96e-08 6.94e+01  -6.3 1.94e+01    -  2.00e-02 4.27e-03f  1
   2  2.3414060e+08 0.00e+00 3.62e+01  -1.0 2.89e-01    -  7.26e-01 1.00e+00f  1
   3  2.2830610e+08 0.00e+00 1.23e+01  -0.9 7.77e-01    -  1.00e+00 3.87e-01f  1
   4  2.4136985e+08 1.02e-06 2.66e+08   1.1 5.85e+00    -  1.00e+00 1.33e-01f  1
   5  2.1430579e+08 1.59e-06 6.00e+01   1.0 5.92e-01    -  1.00e+00 1.00e+00f  1
   6  2.1379928e+08 1.25e-06 1.49e+05  -5.0 4.05e-01    -  5.30e-01 5.00e-01f  2
   7  2.1814400e+08 2.88e-07 9.11e+00   0.1 1.87e-01    -  9.95e-01 1.00e+00h  1
   8  2.1814010e+08 2.09e-07 6.00e+00  -5.9 2.20e-01    -  7.19e-01 5.07e-02f  5
   9  2.0562034e+08 0.00e+00 6.73e+00  -1.1 4.16e-01    -  7.44e-01 5.72e-01f  1
iter    objective    inf_pr   inf_du lg(mu)  ||d||  lg(rg) alpha_du alpha_pr  ls
  10  2.0168347e+08 0.00e+00 3.33e+00  -1.1 6.51e-01    -  8.70e-01 5.05e-01f  1
  11  1.9619970e+08 0.00e+00 2.50e+00  -1.2 5.08e-01    -  8.13e-01 5.97e-01f  1
  12  1.9055889e+08 0.00e+00 4.75e+00  -1.2 5.91e-01    -  6.81e-01 9.99e-01f  1
  13  1.9507273e+08 0.00e+00 5.29e+00   0.8 5.37e+01    -  1.50e-02 8.23e-03f  1
  14  1.9399035e+08 0.00e+00 6.44e+00  -0.9 1.02e+00    -  3.19e-01 4.10e-01f  1
  15  1.9311805e+08 0.00e+00 6.20e+00  -1.6 2.95e+00    -  3.13e-01 1.26e-01f  1
  16  1.9051565e+08 0.00e+00 5.81e+00  -2.4 1.12e+00    -  1.82e-01 3.73e-01f  1
  17  1.8933182e+08 0.00e+00 3.31e+00  -1.2 9.67e-01    -  9.84e-01 4.85e-01f  1
  18  1.8779124e+08 0.00e+00 1.33e+00  -1.6 4.57e-01    -  9.93e-01 5.18e-01f  1
  19  1.8592571e+08 0.00e+00 6.46e-01  -1.8 5.45e-01    -  9.30e-01 4.55e-01f  1
iter    objective    inf_pr   inf_du lg(mu)  ||d||  lg(rg) alpha_du alpha_pr  ls
  20  1.8429549e+08 0.00e+00 3.56e-01  -2.2 4.14e-01    -  9.95e-01 4.41e-01f  1
  21  1.8198780e+08 0.00e+00 6.57e-01  -2.4 5.17e-01    -  9.95e-01 5.78e-01f  1
  22  1.8104215e+08 0.00e+00 1.13e+00  -2.1 1.53e-01    -  1.00e+00 8.78e-01f  1
  23  1.8052065e+08 0.00e+00 1.82e+00  -1.8 3.27e-01    -  1.00e+00 8.88e-01f  1
  24  1.7918247e+08 0.00e+00 1.38e+00  -1.9 4.09e-01    -  9.19e-01 1.00e+00f  1
  25  1.8165285e+08 0.00e+00 3.02e-01  -1.6 4.90e-01    -  1.00e+00 1.00e+00f  1
  26  1.7927587e+08 0.00e+00 2.79e-01  -1.7 2.56e-01    -  1.00e+00 8.92e-01f  1
  27  1.7678760e+08 0.00e+00 3.93e-01  -2.6 2.89e-01    -  5.82e-01 6.85e-01f  1
  28  1.7612281e+08 0.00e+00 1.50e-01  -2.1 2.54e-01    -  9.69e-01 1.00e+00f  1
  29  1.7561380e+08 0.00e+00 1.62e-01  -2.2 2.98e-01    -  9.27e-01 1.00e+00f  1
iter    objective    inf_pr   inf_du lg(mu)  ||d||  lg(rg) alpha_du alpha_pr  ls
  30  1.7504684e+08 0.00e+00 1.29e-01  -2.3 3.60e-01    -  9.70e-01 8.51e-01f  1
  31  1.7455066e+08 0.00e+00 1.06e-01  -2.4 2.83e-01    -  9.85e-01 7.00e-01f  1
  32  1.7728476e+08 0.00e+00 5.46e-01  -1.5 1.28e+00    -  6.28e-01 2.24e-01f  1
  33  1.7773683e+08 0.00e+00 2.37e-01  -1.8 2.87e-01    -  1.00e+00 1.00e+00f  1
  34  1.7480281e+08 0.00e+00 2.63e-01  -2.7 2.95e-01    -  5.97e-01 1.00e+00f  1
  35  1.7424764e+08 0.00e+00 1.53e-01  -2.7 3.50e-01    -  5.48e-01 5.53e-01f  1
  36  1.7439478e+08 0.00e+00 8.68e-01  -2.4 4.05e-01    -  9.08e-01 1.00e+00f  1
  37  1.7409112e+08 0.00e+00 1.15e-01  -2.5 5.07e-01    -  4.01e-01 1.00e+00f  1
  38  1.7414997e+08 0.00e+00 6.93e-02  -2.4 1.67e-01    -  9.19e-01 1.00e+00f  1
  39  1.7385086e+08 0.00e+00 1.01e-01  -2.5 2.25e-01    -  7.24e-01 1.00e+00f  1
iter    objective    inf_pr   inf_du lg(mu)  ||d||  lg(rg) alpha_du alpha_pr  ls
  40  1.7379471e+08 0.00e+00 1.11e-01  -2.5 2.65e-01    -  7.88e-01 1.00e+00f  1
  41  1.7356489e+08 0.00e+00 9.97e-02  -2.6 1.92e-01    -  9.66e-01 1.00e+00f  1
  42  1.7607791e+08 0.00e+00 1.39e-01  -1.8 9.17e-01    -  4.91e-01 3.84e-01f  1
  43  1.7526691e+08 0.00e+00 4.00e-01  -2.1 3.37e-01    -  8.21e-01 1.00e+00f  1
  44  1.7480445e+08 0.00e+00 8.39e-02  -3.2 7.93e-01    -  2.26e-01 1.99e-01f  1
  45  1.7411417e+08 0.00e+00 4.51e-01  -3.2 3.71e-01    -  3.24e-01 3.72e-01f  1
  46  1.7346595e+08 0.00e+00 1.75e-01  -3.2 8.07e-01    -  3.80e-01 4.97e-01f  1
  47  1.7344494e+08 0.00e+00 7.23e-02  -2.6 4.89e-01    -  9.83e-01 1.00e+00f  1
  48  1.7302024e+08 0.00e+00 7.09e-02  -2.9 1.18e-01    -  9.86e-01 8.88e-01f  1
  49  1.7354592e+08 0.00e+00 1.18e-01  -2.0 9.59e-01    -  5.64e-01 1.27e-01f  1
iter    objective    inf_pr   inf_du lg(mu)  ||d||  lg(rg) alpha_du alpha_pr  ls
  50  1.7407395e+08 0.00e+00 2.07e-01  -2.4 3.56e-01    -  9.14e-01 1.00e+00f  1
  51  1.7336848e+08 0.00e+00 1.27e-01  -3.6 2.57e-01    -  4.44e-01 4.80e-01f  1
  52  1.7296251e+08 0.00e+00 2.14e-01  -3.6 1.37e+00    -  9.50e-02 4.45e-01f  1
  53  1.7317101e+08 0.00e+00 7.43e-02  -2.7 4.94e-01    -  8.47e-01 1.00e+00f  1
  54  1.7301101e+08 0.00e+00 1.13e-01  -2.8 1.66e-01    -  1.00e+00 8.92e-01f  1
  55  1.7300014e+08 0.00e+00 8.25e-02  -2.8 1.89e+00    -  2.38e-01 1.72e-01f  2
  56  1.7271540e+08 0.00e+00 8.98e-02  -4.2 2.31e-01    -  3.02e-01 4.32e-01f  1
  57  1.7308765e+08 0.00e+00 1.62e-01  -2.7 5.71e-01    -  1.00e+00 8.25e-01f  1
  58  1.7294196e+08 0.00e+00 1.82e-01  -2.8 2.30e-01    -  6.01e-01 1.00e+00f  1
  59  1.7292311e+08 0.00e+00 8.23e-02  -2.8 5.26e-01    -  2.37e-01 4.80e-01f  2
iter    objective    inf_pr   inf_du lg(mu)  ||d||  lg(rg) alpha_du alpha_pr  ls
  60  1.7269173e+08 0.00e+00 3.63e-02  -4.3 1.83e-01    -  6.02e-01 3.78e-01f  1
  61  1.7265106e+08 0.00e+00 9.21e-02  -3.1 5.06e-01    -  7.13e-01 4.27e-01f  1
  62  1.7253894e+08 0.00e+00 7.09e-02  -3.3 1.80e-01    -  9.98e-01 7.92e-01f  1
  63  1.7249937e+08 0.00e+00 5.31e-02  -3.5 4.24e-01    -  9.99e-01 2.00e-01f  1
  64  1.7246611e+08 0.00e+00 5.92e-02  -3.4 4.45e-01    -  9.36e-01 3.29e-01f  1
  65  1.7241539e+08 0.00e+00 5.00e-02  -3.7 2.83e-01    -  9.96e-01 3.41e-01f  1
  66  1.7242976e+08 0.00e+00 1.21e-01  -3.3 9.16e-01    -  1.00e+00 3.34e-01f  1
  67  1.7240908e+08 0.00e+00 5.43e-02  -3.4 2.43e-01    -  8.71e-01 6.16e-01f  1
  68  1.7239765e+08 0.00e+00 5.85e-02  -3.4 5.56e-01    -  9.94e-01 2.33e-01f  1
  69  1.7238718e+08 0.00e+00 5.62e-02  -3.4 5.11e-01    -  9.88e-01 2.59e-01f  1
iter    objective    inf_pr   inf_du lg(mu)  ||d||  lg(rg) alpha_du alpha_pr  ls
  70  1.7236257e+08 0.00e+00 1.41e-01  -3.6 8.27e-01    -  9.96e-01 2.87e-01f  1
  71  1.7244101e+08 0.00e+00 8.50e-02  -3.1 4.38e-01    -  9.73e-01 5.01e-01f  1
  72  1.7243159e+08 0.00e+00 5.66e-02  -3.3 3.31e-01    -  9.71e-01 3.83e-01f  1
  73  1.7242218e+08 0.00e+00 4.41e-02  -3.3 1.51e-01    -  1.00e+00 8.10e-01f  1
  74  1.7241788e+08 0.00e+00 3.50e-02  -3.3 3.44e-01    -  1.00e+00 4.43e-01f  1
  75  1.7241441e+08 0.00e+00 3.20e-02  -3.3 1.05e+00    -  8.69e-01 2.25e-01f  1
  76  1.7241114e+08 0.00e+00 5.39e-02  -3.3 3.15e-01    -  1.00e+00 4.97e-01f  1
  77  1.7240969e+08 0.00e+00 5.76e-02  -3.3 2.19e+00    -  1.77e-01 1.35e-01f  2
  78  1.7240750e+08 0.00e+00 4.25e-02  -3.3 9.99e-02    -  1.00e+00 1.00e+00f  1
  79  1.7240505e+08 0.00e+00 5.40e-02  -3.3 1.11e+00    -  3.34e-01 2.91e-01f  2
iter    objective    inf_pr   inf_du lg(mu)  ||d||  lg(rg) alpha_du alpha_pr  ls
  80  1.7240269e+08 0.00e+00 5.43e-02  -3.3 3.42e-01    -  1.00e+00 8.21e-01f  1
  81  1.7240052e+08 0.00e+00 5.51e-02  -3.3 6.22e-01    -  1.00e+00 3.74e-01f  1
  82  1.7239660e+08 0.00e+00 4.77e-02  -3.3 1.97e-01    -  9.65e-01 1.00e+00f  1
  83  1.7239505e+08 0.00e+00 3.22e-02  -3.3 5.76e-01    -  1.00e+00 3.02e-01f  2
  84  1.7239369e+08 0.00e+00 3.09e-02  -3.3 1.26e-01    -  1.00e+00 8.03e-01f  1
  85  1.7239305e+08 0.00e+00 3.65e-02  -3.3 8.30e-02    -  1.00e+00 7.18e-01f  1
  86  1.7239317e+08 0.00e+00 8.93e-03  -3.3 2.71e-02    -  1.00e+00 1.00e+00f  1
  87  1.7217538e+08 0.00e+00 3.47e-02  -4.9 5.59e-02    -  9.49e-01 9.64e-01f  1
  88  1.7217271e+08 0.00e+00 4.32e-02  -4.4 2.07e-01    -  9.98e-01 2.51e-01f  1
  89  1.7215346e+08 0.00e+00 4.33e-02  -4.8 7.56e-02    -  1.00e+00 1.00e+00f  1
iter    objective    inf_pr   inf_du lg(mu)  ||d||  lg(rg) alpha_du alpha_pr  ls
  90  1.7215259e+08 0.00e+00 4.78e-02  -5.1 5.71e-01    -  1.00e+00 8.36e-02f  1
  91  1.7215139e+08 0.00e+00 7.06e-03  -5.4 6.32e-02    -  1.00e+00 1.91e-01f  1
  92  1.7214753e+08 0.00e+00 5.46e-02  -5.9 3.29e-01    -  1.00e+00 3.73e-01f  1
  93  1.7214747e+08 0.00e+00 4.37e-02  -6.2 6.63e-01    -  1.00e+00 3.63e-03f  1
  94  1.7214600e+08 0.00e+00 4.73e-02  -6.8 3.89e-01    -  1.00e+00 1.05e-01f  1
  95  1.7214451e+08 0.00e+00 4.77e-02  -6.3 4.44e-02    -  1.00e+00 3.49e-01f  1
  96  1.7214365e+08 0.00e+00 3.30e-02  -7.5 3.25e-02    -  1.00e+00 2.84e-01f  1
  97  1.7214290e+08 0.00e+00 8.29e-03  -7.7 6.35e-02    -  1.00e+00 3.46e-01f  1
  98  1.7214257e+08 0.00e+00 1.47e-02  -7.5 1.10e-01    -  1.00e+00 1.95e-01f  1
  99  1.7214208e+08 0.00e+00 3.79e-02  -7.6 1.76e-01    -  1.00e+00 2.54e-01f  1
iter    objective    inf_pr   inf_du lg(mu)  ||d||  lg(rg) alpha_du alpha_pr  ls
 100  1.7214158e+08 0.00e+00 5.39e-02  -8.1 3.99e-01    -  1.00e+00 1.22e-01f  1

Number of Iterations....: 100

                                   (scaled)                 (unscaled)
Objective...............:   9.6156751395721710e+02    1.7214158346480402e+08
Dual infeasibility......:   5.3905482854360913e-02    9.6502586051356520e+03
Constraint violation....:   0.0000000000000000e+00    0.0000000000000000e+00
Complementarity.........:   5.5193023673748312e-06    9.8807565287944787e-01
Overall NLP error.......:   9.8815452504238399e-03    9.6502586051356520e+03


Number of objective function evaluations             = 112
Number of objective gradient evaluations             = 101
Number of equality constraint evaluations            = 0
Number of inequality constraint evaluations          = 112
Number of equality constraint Jacobian evaluations   = 0
Number of inequality constraint Jacobian evaluations = 101
Number of Lagrangian Hessian evaluations             = 0
Total CPU secs in IPOPT (w/o function evaluations)   =      2.959
Total CPU secs in NLP function evaluations           =    145.910

EXIT: Maximum Number of Iterations Exceeded.
